15
1 
1 3 
2 4 1
3 5 1 4
8 1 2 3 4
9 2 3 5 1 3
5 10 2 3 4 3 5
4 4 3 5 1 3 2 2
3 1 7 3 4 1 2 1 1
0 2 3 5 1 3 3 4 6 2
3 1 7 7 3 3 4 1 2 1 1
0 2 3 5 1 3 3 4 6 2 3 4
3 1 2 3 1 2 1 1 4 1 2 2 3
0 2 3 5 1 3 5 3 1 3 3 4 3 4
